12 2 
1 3 120
1 4 543
1 6 145
1 7 345
1 8 100
1 9 99 
1 12 13
2 3 364
2 5 653
2 9 85
2 10 91
2 11 97
2 12 101
3 4 54
3 5 117
3 6 123
3 7 167
3 9 28
3 10 52
3 11 37
4 5 132
4 7 110
4 8 148
4 10 139
4 12 32
5 6 156
5 8 220
5 9 45
5 11 120
5 12 115
6 7 236
6 8 453
6 10 415
6 11 82
7 8 452
7 9 213
7 10 158
7 11 236
7 12 98
8 9 124
8 10 74
8 11 43
8 12 35
9 10 234
9 11 200
10 11 55
10 12 68
11 12 49